# Example from Rubin Martins and Inès Lynce
#   Breaking Local Symmetries in Quasigroup Completion Problems, page 3
# The solution is unique:
#   1 3 2 5 4
#   2 5 4 1 3
#   4 1 3 2 5
#   5 4 1 3 2
#   3 2 5 4 1
param n := 5;
param m: 1 2 3 4 5 :=
   1   1  .  .  .  4 
   2   .  5  .  .  . 
   3   4  .  .  2  . 
   4   .  4  .  .  . 
   5   .  .  5  .  1
;
